data;


param FN:= 1;
param D:= 100;
param U_Original:=
         1         1       -2.208541e+00
         2         1       -3.650512e-01
         3         1       -1.077008e+00
         4         1        9.215740e-01
         5         1       -8.929049e-01
         6         1        1.263006e+00
         7         1        7.390463e-01
         8         1        8.275173e-01
         9         1       -5.037948e-01
        10         1        7.618148e-01
        11         1        1.070041e-01
        12         1        4.171117e-01
        13         1        1.488727e+00
        14         1       -1.365193e+00
        15         1        2.649426e-01
        16         1       -2.736556e-01
        17         1        2.000288e-01
        18         1       -9.017143e-01
        19         1        1.132890e+00
        20         1        1.762274e+00
        21         1       -2.385761e-02
        22         1       -1.470492e+00
        23         1        1.037701e+00
        24         1       -1.154554e+00
        25         1       -2.284120e-01
        26         1        1.336420e+00
        27         1        6.939736e-01
        28         1        8.284561e-01
        29         1        1.458057e+00
        30         1       -2.737117e-01
        31         1        3.439882e-01
        32         1       -4.884062e-01
        33         1        2.127691e+00
        34         1        1.345067e+00
        35         1       -1.056824e+00
        36         1       -7.171842e-01
        37         1        4.398455e-01
        38         1        1.316893e-01
        39         1       -1.910028e+00
        40         1       -6.010722e-01
        41         1        3.118047e-01
        42         1        5.399653e-01
        43         1        5.301921e-01
        44         1       -4.419932e-01
        45         1       -6.954229e-01
        46         1       -6.852293e-01
        47         1        1.121612e+00
        48         1       -9.094443e-01
        49         1       -1.501268e-01
        50         1        2.872177e+00
        51         1       -2.069192e-01
        52         1       -1.581652e+00
        53         1        1.676315e+00
        54         1       -6.123319e-01
        55         1        2.559789e-01
        56         1       -1.844052e-01
        57         1       -1.610369e+00
        58         1        6.300235e-01
        59         1        5.868911e-01
        60         1        1.597444e-01
        61         1       -1.937693e+00
        62         1        1.234425e+00
        63         1       -6.764425e-01
        64         1       -1.066125e+00
        65         1       -5.434658e-01
        66         1       -1.341750e+00
        67         1        1.086487e+00
        68         1       -9.850048e-02
        69         1       -6.265712e-01
        70         1       -1.097753e+00
        71         1        5.534210e-01
        72         1       -1.259729e-01
        73         1       -5.225868e-01
        74         1        1.026441e+00
        75         1        1.284579e+00
        76         1       -1.063700e+00
        77         1        1.670833e-01
        78         1        4.591598e-01
        79         1       -1.266953e+00
        80         1        7.164988e-01
        81         1        2.993720e-01
        82         1        5.139193e-01
        83         1       -2.799672e-01
        84         1       -1.159383e+00
        85         1       -1.948576e+00
        86         1       -2.893577e-01
        87         1       -1.456015e+00
        88         1        8.000693e-01
        89         1       -9.837302e-01
        90         1       -1.922717e-01
        91         1        5.382895e-01
        92         1       -7.120902e-02
        93         1       -3.752523e-01
        94         1       -1.223562e-01
        95         1        1.123352e+00
        96         1       -6.731272e-01
        97         1       -1.073028e+00
        98         1       -1.395030e+00
        99         1        8.084492e-01
       100         1        1.588539e-01
         1         2        2.112917e+00
         2         2       -7.198764e-01
         3         2       -1.072271e+00
         4         2        2.585550e-01
         5         2       -4.621194e-01
         6         2        3.494797e-01
         7         2        2.701494e-01
         8         2       -1.786042e+00
         9         2        1.420122e+00
        10         2       -5.402760e-01
        11         2       -6.280376e-01
        12         2        1.518062e-01
        13         2        7.113235e-01
        14         2        4.281717e-01
        15         2        4.916192e-01
        16         2        1.129470e+00
        17         2        4.428096e-02
        18         2       -1.460133e-01
        19         2       -7.163580e-01
        20         2       -7.204767e-01
        21         2        6.180195e-01
        22         2       -1.479821e+00
        23         2       -2.059416e+00
        24         2        2.335691e-01
        25         2       -3.481015e+00
        26         2       -6.092482e-01
        27         2       -3.641148e-01
        28         2       -5.429733e-01
        29         2       -2.854769e-01
        30         2        5.090383e-01
        31         2       -3.693266e-01
        32         2       -1.082286e+00
        33         2        1.909582e+00
        34         2        6.952757e-01
        35         2        3.550504e-01
        36         2        1.208959e+00
        37         2        2.510424e+00
        38         2       -5.084346e-01
        39         2        2.113955e-01
        40         2        1.503425e+00
        41         2        1.877917e+00
        42         2        8.555733e-01
        43         2       -4.046419e-01
        44         2        9.054339e-01
        45         2        1.127304e+00
        46         2        1.408621e+00
        47         2       -6.144460e-02
        48         2        2.432787e-01
        49         2       -3.441038e-01
        50         2        2.501863e-01
        51         2       -7.583894e-02
        52         2       -4.080438e-01
        53         2        2.039085e+00
        54         2       -1.136342e+00
        55         2       -1.158984e+00
        56         2        3.935277e-01
        57         2        1.074270e+00
        58         2        1.321951e+00
        59         2       -5.459257e-01
        60         2       -4.208911e-01
        61         2       -7.954298e-01
        62         2       -1.366860e+00
        63         2        1.524761e+00
        64         2        8.145104e-01
        65         2        1.792602e+00
        66         2        7.607211e-01
        67         2       -1.111048e+00
        68         2       -7.103692e-01
        69         2       -2.922295e-01
        70         2        7.906587e-01
        71         2       -9.365396e-01
        72         2       -3.696212e-01
        73         2        1.490037e+00
        74         2       -6.146598e-01
        75         2       -8.692327e-01
        76         2        5.736204e-01
        77         2        1.494956e+00
        78         2        1.537720e+00
        79         2       -5.343169e-01
        80         2       -7.995241e-01
        81         2        2.557362e-01
        82         2        6.640224e-01
        83         2       -3.607117e-01
        84         2        1.384352e+00
        85         2       -4.890334e-01
        86         2       -5.294800e-01
        87         2       -1.024983e+00
        88         2       -1.180819e+00
        89         2       -9.966481e-01
        90         2        1.426902e+00
        91         2       -5.230350e-01
        92         2        9.124094e-01
        93         2       -6.791113e-01
        94         2        5.299812e-02
        95         2        4.780886e-02
        96         2       -4.685611e-01
        97         2        1.508624e+00
        98         2        6.334849e-01
        99         2        1.098922e+00
       100         2        1.461623e-01
         1         3       -9.613486e-01
         2         3       -4.822259e-01
         3         3       -8.422840e-02
         4         3        1.449606e-01
         5         3       -2.370529e-01
         6         3        1.639424e+00
         7         3        4.521600e-01
         8         3        7.528574e-01
         9         3        3.160242e-01
        10         3        1.167722e+00
        11         3        2.889060e-01
        12         3        1.232588e+00
        13         3        2.192793e+00
        14         3       -9.025582e-01
        15         3       -2.392518e+00
        16         3        9.032919e-01
        17         3        2.462885e-01
        18         3       -3.356673e-01
        19         3        3.877796e-02
        20         3        7.395674e-01
        21         3        4.812423e-02
        22         3       -6.700162e-01
        23         3        5.568489e-01
        24         3        1.134887e+00
        25         3       -9.818844e-01
        26         3       -9.229141e-03
        27         3        1.994342e-01
        28         3        2.004242e-01
        29         3        4.576436e-01
        30         3       -4.273191e-01
        31         3        1.345963e+00
        32         3        1.138594e+00
        33         3        1.074785e+00
        34         3       -1.491285e+00
        35         3        5.732224e-01
        36         3        1.053560e+00
        37         3       -1.980903e+00
        38         3       -1.026950e-01
        39         3        5.989288e-01
        40         3       -8.351540e-01
        41         3        1.822221e+00
        42         3       -8.638565e-01
        43         3       -1.250110e+00
        44         3        1.453363e+00
        45         3       -5.549106e-01
        46         3        1.126568e+00
        47         3       -2.372506e+00
        48         3       -2.558008e+00
        49         3        5.712169e-02
        50         3       -1.982456e-01
        51         3        5.087947e-02
        52         3        2.426867e-01
        53         3       -3.414606e-02
        54         3       -2.198357e+00
        55         3       -3.107554e-01
        56         3        1.174508e+00
        57         3       -6.333897e-01
        58         3        1.822743e+00
        59         3        1.178950e+00
        60         3       -1.555358e+00
        61         3       -5.594517e-01
        62         3       -5.003754e-01
        63         3        6.101653e-01
        64         3       -2.478219e-01
        65         3        1.311931e+00
        66         3       -9.191671e-01
        67         3       -8.291253e-01
        68         3        1.682626e-01
        69         3       -3.192993e-01
        70         3        6.642667e-01
        71         3        1.706073e+00
        72         3       -9.324937e-01
        73         3        4.205291e-03
        74         3       -1.420864e-01
        75         3        4.001735e-01
        76         3       -6.758661e-01
        77         3       -1.209046e+00
        78         3        5.993502e-01
        79         3       -4.412427e-01
        80         3       -1.608094e+00
        81         3        6.663252e-01
        82         3       -3.078301e-01
        83         3        1.107880e+00
        84         3        2.614507e+00
        85         3        1.657365e-01
        86         3       -7.831850e-01
        87         3        5.363600e-01
        88         3       -8.449039e-01
        89         3        3.936877e-01
        90         3        8.976724e-01
        91         3       -8.283547e-03
        92         3        1.289345e+00
        93         3       -4.637979e-02
        94         3       -9.882375e-01
        95         3        4.516739e-01
        96         3        5.265769e-01
        97         3        2.171788e-01
        98         3        7.164038e-01
        99         3       -1.115947e+00
       100         3        1.931951e+00
         1         4        8.112723e-01
         2         4       -8.074278e-02
         3         4       -1.217419e+00
         4         4       -3.039952e+00
         5         4       -5.865599e-01
         6         4        2.868023e-01
         7         4        4.005832e-01
         8         4        1.609715e+00
         9         4       -1.194834e+00
        10         4       -1.747328e-01
        11         4        5.257936e-02
        12         4        1.798034e+00
        13         4       -2.440395e+00
        14         4        2.004094e+00
        15         4       -1.074881e-01
        16         4        6.587208e-01
        17         4        2.031033e+00
        18         4        1.124900e+00
        19         4       -1.509856e+00
        20         4        4.807963e-01
        21         4       -6.160485e-01
        22         4        3.700806e-01
        23         4        7.408707e-01
        24         4        6.681462e-01
        25         4       -7.555395e-01
        26         4        1.464242e+00
        27         4        8.185630e-01
        28         4       -6.442678e-01
        29         4       -9.114732e-01
        30         4        1.896632e-01
        31         4        8.197148e-02
        32         4        1.640232e-01
        33         4        1.510823e+00
        34         4        1.593576e+00
        35         4        8.902232e-02
        36         4       -6.182665e-01
        37         4       -3.635441e-01
        38         4        4.543900e-01
        39         4        8.872269e-01
        40         4       -7.702847e-03
        41         4        8.962369e-02
        42         4        2.558414e-01
        43         4        5.757268e-01
        44         4       -9.948271e-01
        45         4        1.672165e+00
        46         4        1.087073e+00
        47         4        5.225573e-01
        48         4       -9.616363e-01
        49         4       -8.612131e-01
        50         4        1.422876e+00
        51         4        6.721057e-01
        52         4        3.105872e-01
        53         4        1.168048e+00
        54         4       -6.862736e-01
        55         4       -1.245815e+00
        56         4       -3.778702e-01
        57         4       -3.396729e+00
        58         4       -4.898348e-01
        59         4        1.747307e-01
        60         4       -1.064746e+00
        61         4        2.585151e-02
        62         4       -1.018918e+00
        63         4        2.918522e-01
        64         4        2.084639e+00
        65         4       -8.674115e-01
        66         4       -1.225296e+00
        67         4        1.084533e+00
        68         4       -1.188192e+00
        69         4       -6.018074e-01
        70         4        7.221079e-01
        71         4       -6.181486e-01
        72         4        2.690106e-01
        73         4       -1.273596e+00
        74         4        1.236640e+00
        75         4       -6.419682e-01
        76         4       -1.985477e+00
        77         4       -1.032512e+00
        78         4        3.062800e-01
        79         4        9.190142e-02
        80         4        1.773938e+00
        81         4        2.842260e-01
        82         4        1.303087e+00
        83         4        3.954866e-01
        84         4       -6.527351e-01
        85         4       -1.247943e+00
        86         4        6.286073e-01
        87         4        1.988461e-01
        88         4       -1.107325e+00
        89         4       -6.037555e-01
        90         4       -7.056212e-01
        91         4        8.162577e-01
        92         4        1.420903e+00
        93         4       -1.692900e-01
        94         4        1.930729e-01
        95         4        5.173522e-01
        96         4       -1.004397e+00
        97         4       -2.676850e-01
        98         4       -1.032841e+00
        99         4       -1.016384e+00
       100         4       -1.310508e+00
         1         5       -3.698795e-01
         2         5        1.244728e+00
         3         5        9.845971e-01
         4         5        3.143175e-01
         5         5        1.263265e+00
         6         5       -3.314718e-01
         7         5        4.093784e+00
         8         5       -1.775734e+00
         9         5       -1.267425e+00
        10         5        1.598210e+00
        11         5        8.874391e-01
        12         5        1.049590e+00
        13         5       -6.014947e-01
        14         5       -4.313145e-01
        15         5        4.232367e-02
        16         5        3.719130e-01
        17         5        1.796670e-01
        18         5       -1.036725e+00
        19         5       -1.184215e+00
        20         5        6.204594e-01
        21         5       -2.950642e-01
        22         5        2.646673e-01
        23         5       -1.763793e-01
        24         5       -4.452125e-01
        25         5       -2.654485e-01
        26         5        9.985823e-01
        27         5        2.483134e+00
        28         5        1.273631e+00
        29         5       -5.872321e-01
        30         5       -2.224004e-01
        31         5        6.571206e-02
        32         5       -1.170175e+00
        33         5        7.010141e-01
        34         5       -9.850936e-01
        35         5        8.056436e-01
        36         5        1.574172e+00
        37         5        9.625008e-01
        38         5        1.274831e+00
        39         5        3.290138e-01
        40         5        1.280670e+00
        41         5       -6.056627e-02
        42         5       -1.555501e+00
        43         5        6.024454e-01
        44         5       -3.106821e-01
        45         5       -1.095657e+00
        46         5       -9.486371e-01
        47         5        1.189864e+00
        48         5       -2.256749e-01
        49         5        1.404923e+00
        50         5        7.124676e-02
        51         5        8.637194e-01
        52         5       -2.955261e-01
        53         5       -4.331586e-01
        54         5        2.711963e-01
        55         5        3.972122e-01
        56         5       -3.944594e-01
        57         5       -4.878816e-01
        58         5       -1.638989e-02
        59         5        2.597044e-01
        60         5       -1.594444e+00
        61         5       -6.307518e-01
        62         5        4.988432e-01
        63         5        2.248550e-01
        64         5       -7.340714e-01
        65         5       -7.121584e-01
        66         5        9.945663e-01
        67         5        2.623298e-02
        68         5       -3.070613e-01
        69         5       -1.628998e+00
        70         5       -3.599128e-01
        71         5       -3.408453e-01
        72         5       -5.032080e-02
        73         5       -2.937353e-01
        74         5       -1.445348e+00
        75         5       -5.550783e-01
        76         5       -1.402627e+00
        77         5       -4.003980e-01
        78         5        1.704834e+00
        79         5       -1.477811e-01
        80         5        4.773172e-01
        81         5        1.619125e-01
        82         5       -1.042268e+00
        83         5        3.962387e-01
        84         5       -1.031646e+00
        85         5       -2.709559e-01
        86         5        1.136719e+00
        87         5        7.693070e-02
        88         5        1.425276e+00
        89         5       -1.519723e+00
        90         5       -1.064951e+00
        91         5       -6.644498e-01
        92         5       -1.310702e+00
        93         5       -8.786689e-01
        94         5       -9.119268e-01
        95         5       -3.262839e-01
        96         5        1.863583e-01
        97         5       -1.392374e+00
        98         5       -5.765343e-01
        99         5        8.310733e-01
       100         5       -4.688551e-01
;
param X_Original:=
    1       -4.230845e-01
    2       -2.196535e+00
    3        6.115015e-02
    4       -8.180123e-02
    5        4.165548e-01
    6        1.518199e+00
    7       -1.850243e-01
    8       -2.994359e-01
    9        5.694012e-01
   10        3.243081e+00
   11       -1.327588e+00
   12        1.534657e+00
   13        1.799350e+00
   14       -1.132710e+00
   15       -1.184424e+00
   16        1.060979e-01
   17        1.776222e-02
   18        2.089455e+00
   19        1.347464e+00
   20       -1.955797e-01
   21        1.853936e+00
   22        3.005759e-02
   23        1.715346e+00
   24       -1.127429e+00
   25       -1.551855e+00
   26        5.491799e-03
   27        2.214606e+00
   28        1.707824e+00
   29       -3.117817e-01
   30       -8.632039e-01
   31        3.206239e-01
   32        9.680778e-01
   33        1.027168e+00
   34       -4.286539e+00
   35       -1.524782e-01
   36       -1.151120e+00
   37        3.325040e+00
   38       -5.004651e-01
   39        1.825159e+00
   40        1.002037e+00
   41       -4.467088e-01
   42       -8.319250e-01
   43       -2.397976e+00
   44       -1.108273e+00
   45       -2.469786e+00
   46        2.074348e+00
   47       -1.861881e+00
   48        4.850731e-01
   49        3.413866e+00
   50       -5.189932e-01
   51       -9.890708e-01
   52        2.145653e+00
   53        3.406955e-01
   54       -6.366357e-01
   55        3.128468e-01
   56        8.669555e-01
   57        1.068652e+00
   58       -1.396554e+00
   59       -4.448068e-01
   60       -8.609403e-02
   61       -1.276061e+00
   62        4.663673e-01
   63        4.923436e-01
   64       -1.341258e-01
   65       -2.895724e-02
   66        2.137395e-01
   67       -5.139561e-01
   68       -6.458289e-01
   69       -6.986337e-02
   70        7.157807e-01
   71        9.063231e-01
   72        5.520943e-02
   73       -4.324619e-01
   74       -1.518718e+00
   75       -1.966816e+00
   76       -1.221905e+00
   77        1.192039e+00
   78       -9.601266e-01
   79       -6.129670e-01
   80       -1.445692e+00
   81       -1.083608e+00
   82        2.081828e+00
   83       -1.512920e-01
   84        1.091883e+00
   85        3.945268e-01
   86        1.603674e-01
   87       -2.105368e+00
   88        1.314176e-01
   89       -2.810555e+00
   90        3.649547e-01
   91       -3.191489e-01
   92        3.480163e-01
   93       -1.070486e+00
   94       -6.175911e-01
   95       -1.386076e+00
   96       -4.238559e-02
   97       -1.022070e+00
   98        1.537550e+00
   99        2.045368e+00
  100       -3.995044e-01
;
param outliervec_original :=
    1    1
    2    1
    3    1
    4    1
    5    1
    6    1
    7    1
    8    1
    9    1
   10    0
   11    1
   12    0
   13    0
   14    1
   15    0
   16    1
   17    1
   18    1
   19    1
   20    1
   21    1
   22    1
   23    1
   24    1
   25    1
   26    1
   27    1
   28    1
   29    1
   30    1
   31    1
   32    1
   33    1
   34    0
   35    1
   36    1
   37    0
   38    1
   39    0
   40    1
   41    1
   42    1
   43    1
   44    1
   45    0
   46    1
   47    1
   48    1
   49    0
   50    1
   51    1
   52    1
   53    1
   54    1
   55    1
   56    1
   57    1
   58    1
   59    1
   60    1
   61    1
   62    1
   63    1
   64    1
   65    1
   66    1
   67    1
   68    1
   69    1
   70    1
   71    1
   72    1
   73    1
   74    1
   75    1
   76    1
   77    1
   78    1
   79    1
   80    1
   81    1
   82    1
   83    1
   84    1
   85    1
   86    1
   87    1
   88    1
   89    0
   90    0
   91    1
   92    1
   93    1
   94    1
   95    0
   96    1
   97    1
   98    1
   99    1
  100    1
;
param d:= 56;
param r:=5;
param p:=0.880000;
param M:=1000;
param U:=
         1         1       -2.208541e+00
         2         1       -5.037948e-01
         3         1        7.618148e-01
         4         1        4.171117e-01
         5         1        1.488727e+00
         6         1       -1.365193e+00
         7         1        2.649426e-01
         8         1       -2.736556e-01
         9         1        2.000288e-01
        10         1        1.762274e+00
        11         1       -1.470492e+00
        12         1       -1.154554e+00
        13         1       -2.284120e-01
        14         1        1.336420e+00
        15         1        6.939736e-01
        16         1        8.284561e-01
        17         1        1.458057e+00
        18         1       -2.737117e-01
        19         1        3.439882e-01
        20         1        2.127691e+00
        21         1        1.345067e+00
        22         1        4.398455e-01
        23         1       -6.954229e-01
        24         1       -1.501268e-01
        25         1        2.872177e+00
        26         1        1.676315e+00
        27         1       -6.123319e-01
        28         1        2.559789e-01
        29         1       -1.844052e-01
        30         1       -1.610369e+00
        31         1        5.868911e-01
        32         1       -1.937693e+00
        33         1        1.234425e+00
        34         1       -6.764425e-01
        35         1        1.086487e+00
        36         1       -9.850048e-02
        37         1       -1.097753e+00
        38         1        5.534210e-01
        39         1       -1.259729e-01
        40         1        1.284579e+00
        41         1       -1.063700e+00
        42         1        1.670833e-01
        43         1       -1.266953e+00
        44         1        7.164988e-01
        45         1       -2.799672e-01
        46         1       -1.159383e+00
        47         1       -1.948576e+00
        48         1       -2.893577e-01
        49         1       -9.837302e-01
        50         1       -1.922717e-01
        51         1       -3.752523e-01
        52         1        1.123352e+00
        53         1       -6.731272e-01
        54         1       -1.073028e+00
        55         1       -1.395030e+00
        56         1        8.084492e-01
         1         2        2.112917e+00
         2         2        1.420122e+00
         3         2       -5.402760e-01
         4         2        1.518062e-01
         5         2        7.113235e-01
         6         2        4.281717e-01
         7         2        4.916192e-01
         8         2        1.129470e+00
         9         2        4.428096e-02
        10         2       -7.204767e-01
        11         2       -1.479821e+00
        12         2        2.335691e-01
        13         2       -3.481015e+00
        14         2       -6.092482e-01
        15         2       -3.641148e-01
        16         2       -5.429733e-01
        17         2       -2.854769e-01
        18         2        5.090383e-01
        19         2       -3.693266e-01
        20         2        1.909582e+00
        21         2        6.952757e-01
        22         2        2.510424e+00
        23         2        1.127304e+00
        24         2       -3.441038e-01
        25         2        2.501863e-01
        26         2        2.039085e+00
        27         2       -1.136342e+00
        28         2       -1.158984e+00
        29         2        3.935277e-01
        30         2        1.074270e+00
        31         2       -5.459257e-01
        32         2       -7.954298e-01
        33         2       -1.366860e+00
        34         2        1.524761e+00
        35         2       -1.111048e+00
        36         2       -7.103692e-01
        37         2        7.906587e-01
        38         2       -9.365396e-01
        39         2       -3.696212e-01
        40         2       -8.692327e-01
        41         2        5.736204e-01
        42         2        1.494956e+00
        43         2       -5.343169e-01
        44         2       -7.995241e-01
        45         2       -3.607117e-01
        46         2        1.384352e+00
        47         2       -4.890334e-01
        48         2       -5.294800e-01
        49         2       -9.966481e-01
        50         2        1.426902e+00
        51         2       -6.791113e-01
        52         2        4.780886e-02
        53         2       -4.685611e-01
        54         2        1.508624e+00
        55         2        6.334849e-01
        56         2        1.098922e+00
         1         3       -9.613486e-01
         2         3        3.160242e-01
         3         3        1.167722e+00
         4         3        1.232588e+00
         5         3        2.192793e+00
         6         3       -9.025582e-01
         7         3       -2.392518e+00
         8         3        9.032919e-01
         9         3        2.462885e-01
        10         3        7.395674e-01
        11         3       -6.700162e-01
        12         3        1.134887e+00
        13         3       -9.818844e-01
        14         3       -9.229141e-03
        15         3        1.994342e-01
        16         3        2.004242e-01
        17         3        4.576436e-01
        18         3       -4.273191e-01
        19         3        1.345963e+00
        20         3        1.074785e+00
        21         3       -1.491285e+00
        22         3       -1.980903e+00
        23         3       -5.549106e-01
        24         3        5.712169e-02
        25         3       -1.982456e-01
        26         3       -3.414606e-02
        27         3       -2.198357e+00
        28         3       -3.107554e-01
        29         3        1.174508e+00
        30         3       -6.333897e-01
        31         3        1.178950e+00
        32         3       -5.594517e-01
        33         3       -5.003754e-01
        34         3        6.101653e-01
        35         3       -8.291253e-01
        36         3        1.682626e-01
        37         3        6.642667e-01
        38         3        1.706073e+00
        39         3       -9.324937e-01
        40         3        4.001735e-01
        41         3       -6.758661e-01
        42         3       -1.209046e+00
        43         3       -4.412427e-01
        44         3       -1.608094e+00
        45         3        1.107880e+00
        46         3        2.614507e+00
        47         3        1.657365e-01
        48         3       -7.831850e-01
        49         3        3.936877e-01
        50         3        8.976724e-01
        51         3       -4.637979e-02
        52         3        4.516739e-01
        53         3        5.265769e-01
        54         3        2.171788e-01
        55         3        7.164038e-01
        56         3       -1.115947e+00
         1         4        8.112723e-01
         2         4       -1.194834e+00
         3         4       -1.747328e-01
         4         4        1.798034e+00
         5         4       -2.440395e+00
         6         4        2.004094e+00
         7         4       -1.074881e-01
         8         4        6.587208e-01
         9         4        2.031033e+00
        10         4        4.807963e-01
        11         4        3.700806e-01
        12         4        6.681462e-01
        13         4       -7.555395e-01
        14         4        1.464242e+00
        15         4        8.185630e-01
        16         4       -6.442678e-01
        17         4       -9.114732e-01
        18         4        1.896632e-01
        19         4        8.197148e-02
        20         4        1.510823e+00
        21         4        1.593576e+00
        22         4       -3.635441e-01
        23         4        1.672165e+00
        24         4       -8.612131e-01
        25         4        1.422876e+00
        26         4        1.168048e+00
        27         4       -6.862736e-01
        28         4       -1.245815e+00
        29         4       -3.778702e-01
        30         4       -3.396729e+00
        31         4        1.747307e-01
        32         4        2.585151e-02
        33         4       -1.018918e+00
        34         4        2.918522e-01
        35         4        1.084533e+00
        36         4       -1.188192e+00
        37         4        7.221079e-01
        38         4       -6.181486e-01
        39         4        2.690106e-01
        40         4       -6.419682e-01
        41         4       -1.985477e+00
        42         4       -1.032512e+00
        43         4        9.190142e-02
        44         4        1.773938e+00
        45         4        3.954866e-01
        46         4       -6.527351e-01
        47         4       -1.247943e+00
        48         4        6.286073e-01
        49         4       -6.037555e-01
        50         4       -7.056212e-01
        51         4       -1.692900e-01
        52         4        5.173522e-01
        53         4       -1.004397e+00
        54         4       -2.676850e-01
        55         4       -1.032841e+00
        56         4       -1.016384e+00
         1         5       -3.698795e-01
         2         5       -1.267425e+00
         3         5        1.598210e+00
         4         5        1.049590e+00
         5         5       -6.014947e-01
         6         5       -4.313145e-01
         7         5        4.232367e-02
         8         5        3.719130e-01
         9         5        1.796670e-01
        10         5        6.204594e-01
        11         5        2.646673e-01
        12         5       -4.452125e-01
        13         5       -2.654485e-01
        14         5        9.985823e-01
        15         5        2.483134e+00
        16         5        1.273631e+00
        17         5       -5.872321e-01
        18         5       -2.224004e-01
        19         5        6.571206e-02
        20         5        7.010141e-01
        21         5       -9.850936e-01
        22         5        9.625008e-01
        23         5       -1.095657e+00
        24         5        1.404923e+00
        25         5        7.124676e-02
        26         5       -4.331586e-01
        27         5        2.711963e-01
        28         5        3.972122e-01
        29         5       -3.944594e-01
        30         5       -4.878816e-01
        31         5        2.597044e-01
        32         5       -6.307518e-01
        33         5        4.988432e-01
        34         5        2.248550e-01
        35         5        2.623298e-02
        36         5       -3.070613e-01
        37         5       -3.599128e-01
        38         5       -3.408453e-01
        39         5       -5.032080e-02
        40         5       -5.550783e-01
        41         5       -1.402627e+00
        42         5       -4.003980e-01
        43         5       -1.477811e-01
        44         5        4.773172e-01
        45         5        3.962387e-01
        46         5       -1.031646e+00
        47         5       -2.709559e-01
        48         5        1.136719e+00
        49         5       -1.519723e+00
        50         5       -1.064951e+00
        51         5       -8.786689e-01
        52         5       -3.262839e-01
        53         5        1.863583e-01
        54         5       -1.392374e+00
        55         5       -5.765343e-01
        56         5        8.310733e-01
;

param theta:=
    1       -5.609353e-01
    2        9.803738e-01
    3        6.449816e-01
    4       -7.821517e-01
    5        2.109824e+00
;
param X_true:=
    1        1.456601e+00
    2        1.356222e-01
    3        3.243081e+00
    4        1.534657e+00
    5        1.799350e+00
    6       -1.851367e+00
    7       -1.184424e+00
    8        2.109827e+00
    9       -9.396447e-01
   10       -3.532668e-01
   11       -7.008356e-01
   12        1.232170e-01
   13       -3.852211e+00
   14       -2.864777e-01
   15        3.913898e+00
   16        2.431204e+00
   17       -1.486836e+00
   18       -3.975962e-01
   19        2.529610e-01
   20        1.797977e+00
   21       -4.286539e+00
   22        3.325040e+00
   23       -2.469786e+00
   24        3.413866e+00
   25       -2.465465e+00
   26       -6.952308e-01
   27       -1.177104e+00
   28        4.584702e-01
   29        7.235643e-01
   30        3.368429e+00
   31        3.630171e-01
   32       -1.201699e+00
   33       -5.244646e-01
   34        2.460166e+00
   35       -2.923168e+00
   36       -5.785026e-01
   37        4.461358e-01
   38       -2.888583e-01
   39       -1.066179e+00
   40       -2.084868e+00
   41       -7.987671e-01
   42        5.627857e-01
   43       -4.933883e-01
   44       -2.649614e+00
   45        9.890922e-01
   46        1.897339e+00
   47        1.110564e+00
   48        1.024424e+00
   49       -2.810555e+00
   50        3.649547e-01
   51       -2.266182e+00
   52       -1.386076e+00
   53        1.500372e+00
   54       -6.299243e-01
   55        1.294084e+00
   56        2.417191e+00
;
param X:=
    1       -4.230845e-01
    2        5.694012e-01
    3        3.243081e+00
    4        1.534657e+00
    5        1.799350e+00
    6       -1.132710e+00
    7       -1.184424e+00
    8        1.060979e-01
    9        1.776222e-02
   10       -1.955797e-01
   11        3.005759e-02
   12       -1.127429e+00
   13       -1.551855e+00
   14        5.491799e-03
   15        2.214606e+00
   16        1.707824e+00
   17       -3.117817e-01
   18       -8.632039e-01
   19        3.206239e-01
   20        1.027168e+00
   21       -4.286539e+00
   22        3.325040e+00
   23       -2.469786e+00
   24        3.413866e+00
   25       -5.189932e-01
   26        3.406955e-01
   27       -6.366357e-01
   28        3.128468e-01
   29        8.669555e-01
   30        1.068652e+00
   31       -4.448068e-01
   32       -1.276061e+00
   33        4.663673e-01
   34        4.923436e-01
   35       -5.139561e-01
   36       -6.458289e-01
   37        7.157807e-01
   38        9.063231e-01
   39        5.520943e-02
   40       -1.966816e+00
   41       -1.221905e+00
   42        1.192039e+00
   43       -6.129670e-01
   44       -1.445692e+00
   45       -1.512920e-01
   46        1.091883e+00
   47        3.945268e-01
   48        1.603674e-01
   49       -2.810555e+00
   50        3.649547e-01
   51       -1.070486e+00
   52       -1.386076e+00
   53       -4.238559e-02
   54       -1.022070e+00
   55        1.537550e+00
   56        2.045368e+00
;
param outliervec:=
    1    1
    2    1
    3    0
    4    0
    5    0
    6    1
    7    0
    8    1
    9    1
   10    1
   11    1
   12    1
   13    1
   14    1
   15    1
   16    1
   17    1
   18    1
   19    1
   20    1
   21    0
   22    0
   23    0
   24    0
   25    1
   26    1
   27    1
   28    1
   29    1
   30    1
   31    1
   32    1
   33    1
   34    1
   35    1
   36    1
   37    1
   38    1
   39    1
   40    1
   41    1
   42    1
   43    1
   44    1
   45    1
   46    1
   47    1
   48    1
   49    0
   50    0
   51    1
   52    0
   53    1
   54    1
   55    1
   56    1
; 
param greedy_time :=         7.555346e-01
;